Nodes = {"Gdansk", "Bydgoszcz", "Kolobrzeg", "Katowice", "Krakow", "Bialystok", "Lodz", "Poznan", "Rzeszow", "Szczecin", "Warsaw", "Wroclaw"};
Arcs = {<"Gdansk","Bydgoszcz",1,2,0>, <"Gdansk","Kolobrzeg",1,6,1>, <"Gdansk","Katowice",1,15,0>, <"Gdansk","Krakow",1,19,0>, <"Gdansk","Bialystok",1,21,1>, <"Gdansk","Lodz",1,7,0>, <"Gdansk","Poznan",1,6,0>, <"Gdansk","Rzeszow",1,29,0>, <"Gdansk","Szczecin",1,17,0>, <"Gdansk","Warsaw",1,10,1>, <"Gdansk","Wroclaw",1,13,0>, <"Bydgoszcz","Gdansk",1,2,0>, <"Bydgoszcz","Kolobrzeg",1,4,1>, <"Bydgoszcz","Katowice",1,9,0>, <"Bydgoszcz","Krakow",1,13,0>, <"Bydgoszcz","Bialystok",1,27,0>, <"Bydgoszcz","Lodz",1,4,0>, <"Bydgoszcz","Poznan",1,2,1>, <"Bydgoszcz","Rzeszow",1,26,0>, <"Bydgoszcz","Szczecin",1,12,0>, <"Bydgoszcz","Warsaw",1,10,1>, <"Bydgoszcz","Wroclaw",1,5,0>, <"Kolobrzeg","Gdansk",1,6,1>, <"Kolobrzeg","Bydgoszcz",1,4,1>, <"Kolobrzeg","Katowice",1,23,0>, <"Kolobrzeg","Krakow",1,31,0>, <"Kolobrzeg","Bialystok",1,50,0>, <"Kolobrzeg","Lodz",1,17,0>, <"Kolobrzeg","Poznan",1,4,0>, <"Kolobrzeg","Rzeszow",1,51,0>, <"Kolobrzeg","Szczecin",1,3,1>, <"Kolobrzeg","Warsaw",1,28,0>, <"Kolobrzeg","Wroclaw",1,10,0>, <"Katowice","Gdansk",1,15,0>, <"Katowice","Bydgoszcz",1,9,0>, <"Katowice","Kolobrzeg",1,23,0>, <"Katowice","Krakow",1,1,1>, <"Katowice","Bialystok",1,26,0>, <"Katowice","Lodz",1,2,1>, <"Katowice","Poznan",1,8,0>, <"Katowice","Rzeszow",1,10,0>, <"Katowice","Szczecin",1,28,0>, <"Katowice","Warsaw",1,8,0>, <"Katowice","Wroclaw",1,4,1>, <"Krakow","Gdansk",1,19,0>, <"Krakow","Bydgoszcz",1,13,0>, <"Krakow","Kolobrzeg",1,31,0>, <"Krakow","Katowice",1,1,1>, <"Krakow","Bialystok",1,21,0>, <"Krakow","Lodz",1,3,0>, <"Krakow","Poznan",1,15,0>, <"Krakow","Rzeszow",1,4,1>, <"Krakow","Szczecin",1,40,0>, <"Krakow","Warsaw",1,6,1>, <"Krakow","Wroclaw",1,10,0>, <"Bialystok","Gdansk",1,21,1>, <"Bialystok","Bydgoszcz",1,27,0>, <"Bialystok","Kolobrzeg",1,50,0>, <"Bialystok","Katowice",1,26,0>, <"Bialystok","Krakow",1,21,0>, <"Bialystok","Lodz",1,16,0>, <"Bialystok","Poznan",1,40,0>, <"Bialystok","Rzeszow",1,11,1>, <"Bialystok","Szczecin",1,74,0>, <"Bialystok","Warsaw",1,5,1>, <"Bialystok","Wroclaw",1,42,0>, <"Lodz","Gdansk",1,7,0>, <"Lodz","Bydgoszcz",1,4,0>, <"Lodz","Kolobrzeg",1,17,0>, <"Lodz","Katowice",1,2,1>, <"Lodz","Krakow",1,3,0>, <"Lodz","Bialystok",1,16,0>, <"Lodz","Poznan",1,7,0>, <"Lodz","Rzeszow",1,9,0>, <"Lodz","Szczecin",1,27,0>, <"Lodz","Warsaw",1,3,1>, <"Lodz","Wroclaw",1,7,1>, <"Poznan","Gdansk",1,6,0>, <"Poznan","Bydgoszcz",1,2,1>, <"Poznan","Kolobrzeg",1,4,0>, <"Poznan","Katowice",1,8,0>, <"Poznan","Krakow",1,15,0>, <"Poznan","Bialystok",1,40,0>, <"Poznan","Lodz",1,7,0>, <"Poznan","Rzeszow",1,32,0>, <"Poznan","Szczecin",1,6,1>, <"Poznan","Warsaw",1,18,0>, <"Poznan","Wroclaw",1,2,1>, <"Rzeszow","Gdansk",1,29,0>, <"Rzeszow","Bydgoszcz",1,26,0>, <"Rzeszow","Kolobrzeg",1,51,0>, <"Rzeszow","Katowice",1,10,0>, <"Rzeszow","Krakow",1,4,1>, <"Rzeszow","Bialystok",1,11,1>, <"Rzeszow","Lodz",1,9,0>, <"Rzeszow","Poznan",1,32,0>, <"Rzeszow","Szczecin",1,66,0>, <"Rzeszow","Warsaw",1,6,0>, <"Rzeszow","Wroclaw",1,26,0>, <"Szczecin","Gdansk",1,17,0>, <"Szczecin","Bydgoszcz",1,12,0>, <"Szczecin","Kolobrzeg",1,3,1>, <"Szczecin","Katowice",1,28,0>, <"Szczecin","Krakow",1,40,0>, <"Szczecin","Bialystok",1,74,0>, <"Szczecin","Lodz",1,27,0>, <"Szczecin","Poznan",1,6,1>, <"Szczecin","Rzeszow",1,66,0>, <"Szczecin","Warsaw",1,44,0>, <"Szczecin","Wroclaw",1,11,0>, <"Warsaw","Gdansk",1,10,1>, <"Warsaw","Bydgoszcz",1,10,1>, <"Warsaw","Kolobrzeg",1,28,0>, <"Warsaw","Katowice",1,8,0>, <"Warsaw","Krakow",1,6,1>, <"Warsaw","Bialystok",1,5,1>, <"Warsaw","Lodz",1,3,1>, <"Warsaw","Poznan",1,18,0>, <"Warsaw","Rzeszow",1,6,0>, <"Warsaw","Szczecin",1,44,0>, <"Warsaw","Wroclaw",1,18,0>, <"Wroclaw","Gdansk",1,13,0>, <"Wroclaw","Bydgoszcz",1,5,0>, <"Wroclaw","Kolobrzeg",1,10,0>, <"Wroclaw","Katowice",1,4,1>, <"Wroclaw","Krakow",1,10,0>, <"Wroclaw","Bialystok",1,42,0>, <"Wroclaw","Lodz",1,7,1>, <"Wroclaw","Poznan",1,2,1>, <"Wroclaw","Rzeszow",1,26,0>, <"Wroclaw","Szczecin",1,11,0>, <"Wroclaw","Warsaw",1,18,0>};
Demands = {<"Gdansk","Bydgoszcz",10>, <"Gdansk","Kolobrzeg",20>, <"Gdansk","Katowice",30>, <"Gdansk","Krakow",40>, <"Gdansk","Bialystok",50>, <"Gdansk","Lodz",60>, <"Gdansk","Poznan",70>, <"Gdansk","Rzeszow",80>, <"Gdansk","Szczecin",90>, <"Gdansk","Warsaw",100>, <"Gdansk","Wroclaw",110>, <"Bydgoszcz","Gdansk",10>, <"Bydgoszcz","Kolobrzeg",10>, <"Bydgoszcz","Katowice",20>, <"Bydgoszcz","Krakow",30>, <"Bydgoszcz","Bialystok",40>, <"Bydgoszcz","Lodz",50>, <"Bydgoszcz","Poznan",60>, <"Bydgoszcz","Rzeszow",70>, <"Bydgoszcz","Szczecin",80>, <"Bydgoszcz","Warsaw",90>, <"Bydgoszcz","Wroclaw",100>, <"Kolobrzeg","Gdansk",20>, <"Kolobrzeg","Bydgoszcz",10>, <"Kolobrzeg","Katowice",10>, <"Kolobrzeg","Krakow",20>, <"Kolobrzeg","Bialystok",30>, <"Kolobrzeg","Lodz",40>, <"Kolobrzeg","Poznan",50>, <"Kolobrzeg","Rzeszow",60>, <"Kolobrzeg","Szczecin",70>, <"Kolobrzeg","Warsaw",80>, <"Kolobrzeg","Wroclaw",90>, <"Katowice","Gdansk",30>, <"Katowice","Bydgoszcz",20>, <"Katowice","Kolobrzeg",10>, <"Katowice","Krakow",10>, <"Katowice","Bialystok",20>, <"Katowice","Lodz",30>, <"Katowice","Poznan",40>, <"Katowice","Rzeszow",50>, <"Katowice","Szczecin",60>, <"Katowice","Warsaw",70>, <"Katowice","Wroclaw",80>, <"Krakow","Gdansk",40>, <"Krakow","Bydgoszcz",30>, <"Krakow","Kolobrzeg",20>, <"Krakow","Katowice",10>, <"Krakow","Bialystok",10>, <"Krakow","Lodz",20>, <"Krakow","Poznan",30>, <"Krakow","Rzeszow",40>, <"Krakow","Szczecin",50>, <"Krakow","Warsaw",60>, <"Krakow","Wroclaw",70>, <"Bialystok","Gdansk",50>, <"Bialystok","Bydgoszcz",40>, <"Bialystok","Kolobrzeg",30>, <"Bialystok","Katowice",20>, <"Bialystok","Krakow",10>, <"Bialystok","Lodz",10>, <"Bialystok","Poznan",20>, <"Bialystok","Rzeszow",30>, <"Bialystok","Szczecin",40>, <"Bialystok","Warsaw",50>, <"Bialystok","Wroclaw",60>, <"Lodz","Gdansk",60>, <"Lodz","Bydgoszcz",50>, <"Lodz","Kolobrzeg",40>, <"Lodz","Katowice",30>, <"Lodz","Krakow",20>, <"Lodz","Bialystok",10>, <"Lodz","Poznan",10>, <"Lodz","Rzeszow",20>, <"Lodz","Szczecin",30>, <"Lodz","Warsaw",40>, <"Lodz","Wroclaw",50>, <"Poznan","Gdansk",70>, <"Poznan","Bydgoszcz",60>, <"Poznan","Kolobrzeg",50>, <"Poznan","Katowice",40>, <"Poznan","Krakow",30>, <"Poznan","Bialystok",20>, <"Poznan","Lodz",10>, <"Poznan","Rzeszow",10>, <"Poznan","Szczecin",20>, <"Poznan","Warsaw",30>, <"Poznan","Wroclaw",40>, <"Rzeszow","Gdansk",80>, <"Rzeszow","Bydgoszcz",70>, <"Rzeszow","Kolobrzeg",60>, <"Rzeszow","Katowice",50>, <"Rzeszow","Krakow",40>, <"Rzeszow","Bialystok",30>, <"Rzeszow","Lodz",20>, <"Rzeszow","Poznan",10>, <"Rzeszow","Szczecin",10>, <"Rzeszow","Warsaw",20>, <"Rzeszow","Wroclaw",30>, <"Szczecin","Gdansk",90>, <"Szczecin","Bydgoszcz",80>, <"Szczecin","Kolobrzeg",70>, <"Szczecin","Katowice",60>, <"Szczecin","Krakow",50>, <"Szczecin","Bialystok",40>, <"Szczecin","Lodz",30>, <"Szczecin","Poznan",20>, <"Szczecin","Rzeszow",10>, <"Szczecin","Warsaw",10>, <"Szczecin","Wroclaw",20>, <"Warsaw","Gdansk",100>, <"Warsaw","Bydgoszcz",90>, <"Warsaw","Kolobrzeg",80>, <"Warsaw","Katowice",70>, <"Warsaw","Krakow",60>, <"Warsaw","Bialystok",50>, <"Warsaw","Lodz",40>, <"Warsaw","Poznan",30>, <"Warsaw","Rzeszow",20>, <"Warsaw","Szczecin",10>, <"Warsaw","Wroclaw",10>, <"Wroclaw","Gdansk",110>, <"Wroclaw","Bydgoszcz",100>, <"Wroclaw","Kolobrzeg",90>, <"Wroclaw","Katowice",80>, <"Wroclaw","Krakow",70>, <"Wroclaw","Bialystok",60>, <"Wroclaw","Lodz",50>, <"Wroclaw","Poznan",40>, <"Wroclaw","Rzeszow",30>, <"Wroclaw","Szczecin",20>, <"Wroclaw","Warsaw",10>};
